4 10 18 14 6 11 7 8 15 5 9 19 17 16 3 13 12 0 2 1  
4 10 18 14 6 11 7 8 15 5 9 19 17 16 3 13 12 0 2 1  
4 10 18 14 6 11 7 3 8 15 5 9 2 19 0 13 16 12 17 1  
4 10 18 14 6 11 7 3 8 15 5 9 2 19 0 13 16 12 17 1  
4 10 18 14 6 11 7 8 5 9 13 15 16 17 12 0 2 1 3 19  
4 10 18 14 6 11 7 8 5 9 13 15 16 17 12 2 0 1 3 19  
4 10 18 14 6 15 5 9 8 11 7 19 0 12 2 17 1 13 16 3  
4 10 18 14 6 7 11 8 5 9 19 15 2 17 16 12 0 3 1 13  
4 10 18 14 6 15 5 9 8 11 2 19 0 12 7 17 1 13 16 3  
4 10 18 14 6 7 11 8 5 9 19 15 16 3 17 1 0 2 13 12  
4 10 18 14 6 11 17 16 8 15 5 9 19 0 12 13 7 2 3 1  
4 10 18 14 6 11 17 16 8 15 5 9 13 19 12 0 7 2 1 3  
4 10 18 14 6 11 7 8 15 5 9 17 19 3 13 12 0 1 2 16  
4 10 18 14 6 15 5 9 8 11 2 19 0 12 7 17 1 13 16 3  
4 10 18 14 6 7 11 8 0 15 5 9 19 16 13 12 17 1 2 3  
4 10 18 14 6 11 17 16 8 15 5 9 19 0 12 13 7 2 3 1  
4 10 18 14 6 11 17 16 8 15 5 9 19 0 12 13 7 2 3 1  
4 10 18 14 6 11 7 8 5 9 19 17 15 16 3 13 12 0 1 2  
4 10 18 14 6 11 7 8 15 5 9 19 13 12 0 1 17 2 16 3  
4 10 6 18 15 11 7 8 5 9 19 13 12 0 2 17 1 16 3 14  
4 10 18 14 6 11 17 8 16 15 5 7 9 13 12 0 2 1 3 19  
4 10 18 14 6 11 7 8 5 9 19 15 17 16 3 13 12 0 2 1  
4 10 18 14 6 15 5 7 8 11 9 19 0 12 2 17 1 13 16 3  
4 10 18 14 6 0 8 11 15 5 9 19 2 17 16 12 7 3 1 13  
4 10 18 14 6 7 8 11 5 9 15 19 3 2 16 0 13 12 17 1  
4 10 18 15 7 8 11 5 9 19 6 13 0 12 2 17 1 16 3 14  
4 10 18 14 6 7 11 8 5 9 19 15 2 17 16 12 0 1 13 3  
4 10 18 15 7 8 11 5 9 19 6 13 0 12 2 17 16 1 3 14  
4 10 18 14 6 11 17 16 8 15 5 9 19 13 12 0 2 1 7 3  
4 10 18 14 6 11 7 8 5 9 19 2 15 17 16 12 0 3 1 13  
4 10 18 14 6 7 11 8 0 15 5 9 19 16 3 12 17 1 2 13  
4 10 6 18 15 7 8 11 5 9 19 2 13 12 0 17 1 16 3 14  
4 10 18 14 6 15 5 8 7 11 9 19 0 12 2 17 1 13 16 3  
4 10 18 14 6 11 17 16 8 15 5 9 13 19 12 0 2 3 1 7  
4 10 18 14 6 15 5 9 8 11 0 19 12 17 1 2 7 13 16 3  
4 10 18 14 6 11 7 8 15 5 9 19 17 3 13 12 0 16 2 1  
4 10 18 14 6 11 17 8 15 5 9 19 2 16 13 12 0 7 3 1  
4 10 18 14 6 11 0 8 15 5 9 16 17 19 12 13 7 2 3 1  
4 10 18 14 6 15 5 9 19 11 0 8 12 17 1 2 7 13 16 3  
4 10 18 14 6 11 17 8 15 5 9 19 0 13 12 16 7 2 3 1  
4 10 18 14 6 7 8 11 5 9 15 19 2 13 12 17 16 0 1 3  
4 10 18 14 6 7 8 11 0 15 5 9 19 16 13 12 17 1 2 3  
4 10 18 14 6 11 17 16 8 15 5 9 13 19 12 0 7 2 3 1  
4 10 18 14 6 7 11 8 5 9 19 16 17 15 3 13 12 0 2 1  
4 10 18 14 6 11 7 8 15 5 9 2 19 12 0 1 17 13 16 3  
4 10 18 14 6 11 17 8 15 5 9 19 2 13 12 0 1 7 16 3  
4 10 18 14 6 7 8 11 5 9 15 19 0 3 16 2 13 12 17 1  
4 10 18 14 6 11 17 15 16 8 5 7 9 13 12 0 2 1 3 19  
4 10 18 14 6 15 7 8 5 9 19 17 16 11 13 12 0 1 2 3  
